32	0

0	1	2
8	1	3
9	1	4
7	2	5	6
3	2	7	8
1	2	7	8
8	2	9	10
1	2	9	10
5	1	11
5	1	11
4	1	12
6	1	13
4	1	14
5	1	15
3	1	16
2	1	17
1	2	18	19
7	1	20
1	1	20
5	1	21
7	2	22	25
6	2	23	24
9	1	26
7	1	26
8	1	26
10	1	27
3	1	28
8	1	29
7	1	30
5	1	31
5	1	32
0	0
